 200 63 
 38 32 74 64 36 57 26 98 60 56 95 87 
 72 58 63 50 98 11 5 97 4 58 3 32 
 55 50 27 19 3 31 82 50 45 77 15 10 
 79 87 45 71 94 100 91 76 13 63 81 71 
 41 53 74 88 41 95 65 15 74 40 29 57 
 61 8 15 
 53 
 1 2 3 4 5 6 7 8 9 12 13 15 
 16 17 18 19 20 23 24 25 26 27 28 29 
 30 31 32 33 34 35 38 39 40 42 43 44 
 45 46 47 48 49 50 51 52 53 55 56 57 
 58 59 60 61 63 
 19 
 1 10 12 14 16 21 23 30 35 39 41 42 
 50 51 52 55 57 60 61 
 52 
 1 3 4 5 6 7 10 11 12 13 14 15 
 16 17 18 19 20 22 23 25 26 28 29 30 
 31 32 33 34 35 36 37 38 41 42 43 44 
 45 46 47 48 49 50 51 52 54 56 57 58 
 59 60 61 62 
 50 
 1 2 4 5 7 8 10 11 12 14 15 16 
 17 18 19 20 21 22 24 25 26 27 28 29 
 30 33 34 35 37 38 40 41 43 44 45 46 
 47 48 49 51 52 53 54 56 57 58 59 60 
 61 63 
 18 
 2 3 11 13 15 27 28 29 30 31 35 42 
 45 51 54 56 57 61 
 10 
 4 6 17 23 24 26 29 50 52 57 
 62 
 1 2 3 4 5 6 7 8 9 10 11 12 
 13 14 15 16 17 18 19 20 21 22 23 24 
 25 26 27 28 29 30 31 32 33 34 35 36 
 37 38 39 40 41 42 43 44 45 46 47 48 
 50 51 52 53 54 55 56 57 58 59 60 61 
 62 63 
 17 
 2 5 9 12 18 23 26 29 36 37 39 40 
 46 52 53 61 63 
 13 
 4 7 15 20 26 28 31 34 40 49 52 53 
 58 
 5 
 1 3 8 34 63 
 27 
 2 7 10 11 15 17 19 23 28 29 33 35 
 36 37 40 41 42 43 44 45 46 47 50 53 
 54 60 62 
 5 
 15 24 26 51 55 
 41 
 2 5 6 7 9 12 13 15 16 17 18 20 
 21 22 23 24 25 26 29 30 31 32 34 35 
 36 39 40 41 44 46 47 48 49 50 52 53 
 54 56 58 59 62 
 43 
 1 3 9 10 11 12 13 15 17 18 19 21 
 23 24 25 26 27 28 29 31 32 34 35 37 
 38 39 42 44 46 49 50 51 52 53 54 56 
 57 58 59 60 61 62 63 
 63 
 1 2 3 4 5 6 7 8 9 10 11 12 
 13 14 15 16 17 18 19 20 21 22 23 24 
 25 26 27 28 29 30 31 32 33 34 35 36 
 37 38 39 40 41 42 43 44 45 46 47 48 
 49 50 51 52 53 54 55 56 57 58 59 60 
 61 62 63 
 3 
 19 25 41 
 41 
 2 3 4 5 6 7 8 9 10 13 15 17 
 19 20 21 22 24 27 28 30 31 32 33 34 
 35 36 37 39 41 42 46 47 48 50 51 52 
 53 55 56 57 60 
 42 
 1 2 3 4 6 7 8 12 13 14 15 16 
 17 21 22 23 24 25 26 27 29 31 32 33 
 34 35 36 38 40 41 43 44 45 46 47 48 
 49 50 51 56 59 62 
 3 
 27 40 43 
 39 
 5 6 7 8 10 11 12 13 15 16 18 22 
 23 24 25 26 27 28 29 31 32 34 37 40 
 42 43 45 47 49 51 52 53 54 55 57 58 
 59 61 62 
 35 
 1 2 4 5 12 13 16 17 18 22 24 25 
 27 28 31 33 34 36 37 39 40 42 47 49 
 50 51 52 53 55 58 59 60 61 62 63 
 46 
 1 2 4 8 9 10 11 12 13 14 15 16 
 18 19 20 21 22 24 26 28 29 30 31 32 
 33 34 35 36 37 39 40 41 42 43 44 45 
 46 47 49 50 52 53 59 60 62 63 
 26 
 1 2 4 5 6 7 9 13 14 17 22 23 
 33 36 37 38 41 48 50 51 52 53 54 56 
 57 63 
 20 
 6 8 10 16 17 18 19 20 21 23 27 39 
 40 42 47 50 53 57 58 59 
 6 
 6 14 16 45 48 54 
 19 
 2 4 5 7 12 13 14 22 23 32 35 37 
 41 42 45 46 52 54 61 
 33 
 4 7 9 13 15 16 17 18 20 21 22 25 
 26 27 28 29 30 32 34 35 36 40 43 46 
 51 52 53 54 56 57 58 59 60 
 20 
 2 6 7 9 12 15 16 18 20 23 24 29 
 36 38 40 43 48 54 59 61 
 28 
 4 8 9 14 16 17 19 20 22 28 29 31 
 34 35 36 38 41 44 45 46 48 49 50 51 
 52 57 61 62 
 36 
 1 2 4 5 7 11 12 13 14 17 20 21 
 22 23 24 25 27 28 31 32 34 36 37 38 
 40 44 46 47 49 51 52 55 56 57 58 63 
 38 
 2 3 7 9 12 13 15 18 22 23 24 26 
 27 30 31 33 35 36 38 40 42 43 44 45 
 46 48 50 52 54 55 56 57 58 59 60 61 
 62 63 
 20 
 1 3 4 6 10 11 14 15 17 19 21 22 
 27 28 32 34 41 42 46 57 
 42 
 1 2 3 5 6 7 8 9 10 12 15 18 
 19 20 21 24 25 27 29 31 32 33 34 35 
 36 37 41 42 43 44 45 46 49 50 51 53 
 54 55 58 59 62 63 
 29 
 1 2 4 5 6 7 8 9 10 12 13 14 
 16 17 21 26 29 30 31 32 33 34 35 38 
 45 49 53 60 61 
 47 
 1 2 3 4 5 7 8 9 10 11 13 14 
 17 18 19 22 23 25 26 27 29 30 33 35 
 36 37 38 40 41 42 43 44 45 46 47 48 
 49 51 53 54 55 56 57 58 60 62 63 
 35 
 1 3 5 7 13 14 15 17 18 19 21 23 
 24 25 26 27 29 32 34 37 38 40 42 43 
 47 50 52 53 56 58 59 60 61 62 63 
 16 
 11 14 17 18 26 28 29 30 36 38 49 55 
 56 59 61 62 
 17 
 3 5 11 15 18 19 21 22 31 34 43 47 
 48 50 55 58 61 
 17 
 1 6 14 18 22 27 28 36 37 38 39 47 
 49 51 52 57 61 
 9 
 8 14 15 20 22 28 43 46 52 
 20 
 5 11 14 19 22 27 29 31 32 38 39 41 
 45 47 52 56 58 59 61 62 
 29 
 1 2 6 8 12 17 20 21 22 24 25 26 
 28 29 31 34 35 38 39 40 41 44 46 51 
 58 60 61 62 63 
 34 
 1 2 4 5 6 8 9 10 12 14 15 16 
 19 21 24 25 26 27 31 33 34 39 43 44 
 45 47 50 51 52 54 55 58 62 63 
 7 
 11 25 39 45 47 55 56 
 19 
 1 10 12 13 16 19 20 22 23 28 30 31 
 35 37 40 44 52 54 56 
 16 
 5 8 11 13 14 17 33 38 40 41 42 46 
 49 57 58 63 
 20 
 9 15 16 22 24 25 26 28 30 31 32 37 
 48 52 55 57 58 59 60 63 
 60 
 1 2 3 4 5 6 7 8 9 10 11 12 
 13 14 15 16 17 19 20 21 22 23 24 25 
 26 27 28 29 30 31 32 33 34 35 36 37 
 38 39 40 41 42 43 44 45 46 47 48 49 
 50 51 53 54 55 56 57 58 59 60 61 62 
 38 
 1 3 6 7 10 11 14 16 18 20 21 23 
 25 26 27 28 29 30 32 33 34 36 40 41 
 42 46 47 49 50 51 53 54 56 57 58 59 
 60 62 
 15 
 1 5 6 8 10 18 19 26 35 36 39 53 
 56 59 62 
 59 
 2 3 4 5 6 7 8 9 10 11 12 13 
 14 15 16 17 18 19 20 21 22 23 24 25 
 26 27 28 30 31 32 33 34 35 36 37 38 
 39 40 41 42 43 44 46 47 48 49 50 51 
 52 53 54 55 56 57 58 59 60 62 63 
 4 
 19 25 52 61 
 30 
 1 2 7 9 11 13 14 15 16 18 19 25 
 27 28 29 30 32 33 35 37 38 43 46 49 
 50 51 53 55 59 63 
 27 
 2 4 7 8 10 11 13 14 15 17 18 22 
 23 24 25 26 31 32 40 46 47 53 54 55 
 56 60 61 
 19 
 2 3 6 7 8 10 16 18 21 24 28 29 
 32 34 44 46 53 56 57 
 49 
 3 4 6 7 8 9 10 11 12 14 15 16 
 17 18 20 22 23 24 25 26 28 29 30 31 
 33 35 36 37 38 39 41 42 43 44 45 46 
 47 49 50 51 52 54 55 57 58 60 61 62 
 63 
 58 
 1 2 3 4 5 6 7 8 9 10 11 13 
 14 15 16 17 18 19 21 23 24 25 26 28 
 29 30 31 32 33 34 35 36 37 38 39 40 
 41 42 43 44 45 46 47 48 49 50 51 52 
 54 55 56 57 58 59 60 61 62 63 
 28 
 1 2 3 7 9 11 14 15 16 17 18 19 
 20 25 26 28 32 34 35 36 41 42 44 50 
 52 56 59 61 
 55 
 1 2 3 4 5 6 7 9 10 11 12 13 
 14 15 17 18 19 20 21 23 24 25 26 28 
 29 30 31 32 33 34 35 36 37 38 40 41 
 42 44 45 46 47 48 49 50 51 52 53 54 
 55 56 57 59 61 62 63 
 55 
 1 2 4 5 6 7 8 9 11 12 13 14 
 16 17 18 19 20 21 22 23 24 25 26 27 
 28 29 30 31 32 33 34 35 36 37 39 40 
 42 43 44 45 46 47 50 52 53 54 55 56 
 57 58 59 60 61 62 63 
 22 
 2 3 4 7 11 14 15 16 19 22 27 30 
 33 34 35 37 38 39 40 51 56 58 
 45 
 1 2 4 5 6 7 8 9 10 11 12 13 
 16 17 19 22 23 24 25 26 28 31 33 34 
 36 37 39 40 41 42 43 44 45 46 47 49 
 51 52 53 54 57 58 59 61 63 
 25 
 3 10 11 12 13 16 19 20 21 27 29 31 
 32 34 36 39 40 44 54 57 58 59 60 62 
 63 
 47 
 1 2 4 6 8 9 10 11 12 13 15 16 
 17 18 20 21 22 23 25 27 28 29 30 33 
 35 36 37 38 39 41 44 45 47 48 49 50 
 51 54 55 56 57 58 59 60 61 62 63 
 14 
 7 10 25 30 33 37 39 41 45 46 47 49 
 55 57 
 29 
 1 4 5 9 12 13 14 16 18 19 20 25 
 30 32 33 34 41 42 45 46 50 51 52 56 
 59 60 61 62 63 
 47 
 1 3 4 6 7 8 9 10 12 13 14 15 
 16 18 19 20 21 22 23 26 27 28 29 30 
 31 32 34 36 37 38 39 42 43 44 46 47 
 48 49 50 52 53 54 56 57 59 61 62 
 21 
 3 4 6 14 16 17 20 30 34 35 36 40 
 41 44 46 48 50 51 53 58 61 
 6 
 12 17 35 38 49 58 
 56 
 1 2 3 4 5 6 7 8 9 10 11 12 
 13 14 15 16 17 18 20 21 22 23 24 26 
 28 29 30 31 32 33 34 35 36 37 38 39 
 40 42 43 44 45 46 48 49 50 51 53 54 
 56 57 58 59 60 61 62 63 
 5 
 6 13 28 57 58 
 39 
 3 4 5 6 7 9 11 12 16 17 18 19 
 20 22 23 24 25 26 29 31 34 35 37 38 
 39 40 44 46 47 48 49 50 51 52 53 55 
 56 57 59 
 4 
 51 53 55 59 
 26 
 4 7 9 11 14 15 16 18 22 24 27 28 
 34 36 37 38 40 41 47 48 50 51 57 60 
 62 63 
 47 
 2 5 7 8 10 12 14 16 17 18 19 20 
 21 22 24 25 27 28 30 31 32 34 36 37 
 38 39 40 41 42 43 44 46 47 48 49 51 
 52 54 55 56 57 58 59 60 61 62 63 
 45 
 2 3 4 5 6 7 8 10 11 13 14 15 
 16 18 21 22 23 24 25 26 28 29 30 32 
 34 35 37 38 39 41 42 43 44 46 47 48 
 49 51 52 54 59 60 61 62 63 
 32 
 2 3 5 7 10 11 12 16 17 18 21 22 
 23 24 25 27 28 29 31 34 38 41 44 49 
 50 51 54 55 56 59 61 63 
 9 
 3 8 19 25 27 28 54 57 59 
 23 
 2 3 4 12 14 15 17 18 23 24 30 32 
 35 40 41 44 46 50 51 52 53 54 62 
 56 
 1 2 3 4 6 7 8 9 10 11 12 13 
 14 15 16 17 18 19 20 21 22 23 24 25 
 26 29 30 31 32 33 34 35 36 37 38 39 
 40 41 42 43 44 45 46 48 49 50 51 53 
 54 55 57 58 60 61 62 63 
 55 
 1 2 3 5 6 8 9 10 11 12 13 14 
 15 16 17 18 19 20 21 22 23 25 26 27 
 28 29 31 32 33 34 35 37 38 39 40 41 
 42 43 44 45 47 48 49 50 51 52 53 54 
 56 57 58 59 60 62 63 
 8 
 10 14 25 27 42 43 44 52 
 39 
 2 3 8 9 10 13 14 15 17 22 24 27 
 28 29 30 31 34 37 38 39 41 42 43 44 
 45 46 47 48 49 50 53 54 55 56 57 58 
 60 61 63 
 21 
 6 8 11 17 18 20 22 24 32 34 36 37 
 39 41 43 45 50 51 52 56 60 
 33 
 1 2 5 7 8 9 12 14 16 17 18 19 
 20 21 22 24 26 29 31 34 36 38 39 41 
 43 50 51 53 54 57 60 61 62 
 57 
 1 2 3 4 5 6 7 8 9 10 11 14 
 15 16 17 19 20 21 22 23 24 25 27 28 
 29 30 31 32 33 34 35 36 37 38 39 40 
 41 42 43 44 45 46 47 49 50 51 52 53 
 54 55 56 57 58 59 60 62 63 
 44 
 1 2 6 7 8 9 11 12 15 16 17 18 
 20 21 22 23 25 27 28 29 30 31 33 34 
 35 36 37 38 39 40 44 45 46 47 49 50 
 51 55 56 58 60 61 62 63 
 12 
 7 9 16 27 32 38 39 41 44 52 53 63 
 39 
 1 2 3 5 6 7 11 12 13 14 17 19 
 23 25 26 28 29 30 33 34 35 36 37 38 
 39 40 41 43 44 45 46 47 50 51 55 56 
 61 62 63 
 25 
 1 5 8 10 12 15 18 22 23 26 27 28 
 31 33 38 40 41 46 49 50 53 54 56 58 
 61 
 49 
 1 2 3 4 5 6 7 9 10 11 14 15 
 16 17 19 21 22 23 24 25 26 28 29 30 
 31 33 34 36 37 38 39 40 41 42 44 45 
 46 48 49 51 52 54 55 57 58 59 61 62 
 63 
 32 
 1 2 4 6 7 8 10 12 15 16 17 19 
 21 22 24 26 29 30 31 33 35 39 40 43 
 45 49 54 55 57 59 61 62 
 39 
 1 2 3 6 7 10 11 13 14 15 16 17 
 19 20 24 25 26 28 29 31 32 33 37 38 
 39 40 45 46 48 51 52 54 55 56 58 59 
 60 61 63 
 51 
 1 2 3 4 5 6 7 8 9 10 12 13 
 14 15 16 17 18 19 20 21 22 25 26 28 
 29 30 31 32 33 34 36 37 38 39 41 42 
 44 45 46 47 48 50 51 52 53 56 57 58 
 59 61 63 
 40 
 1 4 5 8 9 10 12 15 16 17 18 19 
 22 23 24 26 27 28 29 30 31 33 34 36 
 38 40 42 44 46 47 51 52 53 54 55 56 
 58 59 61 63 
 3 
 9 18 35 
 30 
 2 4 6 7 8 9 12 14 17 18 20 21 
 22 25 27 28 29 34 36 38 42 46 49 52 
 54 55 58 59 60 62 
 24 
 1 3 7 8 9 10 11 14 15 16 17 23 
 26 31 32 37 38 40 45 46 48 51 55 57 
 46 
 1 2 3 4 5 6 7 8 9 10 11 15 
 19 22 23 24 25 26 27 28 29 30 31 32 
 33 34 36 40 41 42 43 44 45 46 47 49 
 50 51 53 55 57 58 60 61 62 63 
 57 
 2 3 4 5 6 7 8 9 10 11 12 13 
 14 15 16 17 18 19 20 21 22 23 24 25 
 27 28 29 30 31 32 33 34 35 36 37 38 
 39 40 41 42 43 44 45 47 48 50 51 53 
 54 56 57 58 59 60 61 62 63 
 30 
 2 4 6 7 8 12 18 19 20 21 23 27 
 28 30 31 32 34 36 37 39 41 47 50 51 
 55 57 58 61 62 63 
 32 
 7 8 11 13 15 16 20 22 24 26 29 32 
 33 35 37 39 42 44 45 46 47 48 49 50 
 51 52 53 54 55 58 59 61 
 46 
 1 2 3 4 5 7 8 9 10 11 14 16 
 18 19 21 22 23 26 27 30 31 32 33 34 
 35 36 37 38 39 40 43 44 45 47 48 50 
 51 52 53 54 55 57 59 61 62 63 
 37 
 2 4 7 9 14 15 17 19 21 24 25 26 
 29 30 31 32 33 36 37 38 39 40 42 43 
 44 46 47 50 51 52 53 54 55 56 57 58 
 61 
 26 
 3 6 9 11 12 14 15 18 19 20 21 26 
 28 30 36 37 39 41 42 47 48 51 53 55 
 60 61 
 37 
 1 2 3 5 6 9 11 12 13 14 15 16 
 18 19 21 24 29 30 31 32 34 36 38 39 
 41 42 45 46 48 49 50 52 55 58 59 60 
 63 
 36 
 3 4 5 6 7 9 12 15 16 17 19 23 
 25 26 28 31 32 33 35 36 39 42 43 44 
 45 46 48 49 52 53 57 58 59 60 61 63 
 33 
 3 5 6 7 11 12 13 15 16 17 18 19 
 21 23 24 28 30 32 35 36 38 39 40 42 
 47 51 52 53 55 56 59 61 63 
 57 
 1 2 3 4 6 8 9 10 11 12 14 15 
 16 19 20 21 22 23 24 25 26 27 28 29 
 30 31 32 33 34 35 36 37 39 40 41 42 
 43 44 45 46 47 48 49 50 51 52 53 54 
 55 56 57 58 59 60 61 62 63 
 36 
 1 3 4 5 7 9 12 13 14 15 19 20 
 23 24 26 28 29 33 36 38 40 41 42 44 
 48 50 51 53 54 56 58 59 60 61 62 63 
 5 
 2 12 32 38 39 
 20 
 3 5 11 14 15 17 23 24 28 33 37 41 
 49 50 52 57 58 59 61 63 
 47 
 1 2 3 4 5 6 7 8 9 11 12 13 
 16 17 18 19 20 22 23 24 25 28 29 30 
 31 32 33 34 36 37 39 40 41 42 43 44 
 48 49 50 51 52 54 55 57 58 60 63 
 53 
 1 2 3 4 6 8 9 10 11 12 13 14 
 15 16 18 19 20 21 22 23 24 25 26 27 
 28 29 30 32 33 34 35 36 38 41 42 43 
 44 45 46 47 48 49 50 52 53 54 55 57 
 59 60 61 62 63 
 20 
 2 3 9 11 12 13 16 17 18 22 26 28 
 32 33 50 52 59 60 61 62 
 62 
 1 2 3 4 5 6 7 8 9 10 11 12 
 13 14 15 16 17 18 19 20 21 22 23 24 
 25 26 27 28 29 30 31 32 33 34 35 36 
 37 38 39 40 41 42 43 44 45 46 47 48 
 49 50 51 52 53 54 55 56 57 58 60 61 
 62 63 
 52 
 1 2 4 5 6 7 8 9 10 11 12 13 
 14 15 16 17 19 21 24 25 26 27 28 29 
 30 31 32 34 35 36 37 38 39 40 41 43 
 45 46 47 48 50 51 52 53 54 55 56 57 
 58 59 62 63 
 25 
 1 2 3 6 13 16 17 18 19 20 21 22 
 24 25 28 33 36 39 40 42 46 52 53 57 
 60 
 34 
 2 4 8 10 11 12 13 14 16 19 22 24 
 26 27 28 29 30 32 34 35 37 38 39 41 
 45 47 50 52 53 55 56 57 61 62 
 2 
 2 32 
 50 
 2 3 4 5 6 7 8 9 12 13 14 15 
 16 17 18 19 20 21 22 23 25 27 28 29 
 30 32 33 34 35 36 37 39 42 44 45 47 
 48 49 50 51 53 54 55 56 58 59 60 61 
 62 63 
 55 
 1 2 3 4 5 6 7 8 9 10 12 13 
 14 16 17 19 20 21 22 24 25 26 27 28 
 29 30 31 32 33 35 36 37 39 40 41 43 
 44 45 46 47 48 49 50 51 52 53 54 55 
 56 57 59 60 61 62 63 
 16 
 1 4 6 7 19 20 27 29 31 33 39 51 
 52 55 56 58 
 2 
 40 58 
 49 
 1 2 5 6 7 8 10 11 12 14 15 16 
 18 19 20 23 24 25 26 27 28 30 31 32 
 33 34 35 37 38 39 40 42 43 45 46 47 
 48 49 50 51 52 53 54 55 56 57 58 61 
 62 
 45 
 1 2 3 4 5 6 7 8 9 10 11 13 
 14 16 17 18 19 21 23 24 25 27 29 31 
 32 34 35 37 39 40 41 42 45 46 47 48 
 49 51 54 57 58 59 60 61 62 
 4 
 1 37 54 60 
 14 
 6 7 8 14 15 21 32 37 45 48 50 54 
 55 63 
 6 
 6 10 11 15 26 28 
 8 
 6 9 10 18 35 47 56 63 
 11 
 1 6 12 30 31 35 42 44 51 59 60 
 40 
 1 3 4 6 7 8 9 15 16 17 18 19 
 20 21 26 28 29 30 31 32 34 35 36 37 
 38 39 42 43 44 47 48 49 51 54 56 58 
 59 60 61 63 
 41 
 1 2 3 5 7 10 11 12 13 14 15 16 
 17 18 19 22 23 24 26 27 28 30 33 35 
 36 37 38 39 41 43 44 45 46 48 49 51 
 53 54 59 61 63 
 23 
 3 8 10 12 14 16 18 19 20 23 25 29 
 30 31 35 42 45 46 49 57 59 60 62 
 58 
 1 2 3 4 5 6 7 8 9 10 11 12 
 13 14 15 16 17 19 20 21 22 23 24 25 
 26 27 28 29 30 31 32 33 34 35 37 38 
 39 40 41 42 43 44 45 46 47 49 50 51 
 52 53 54 55 56 57 58 60 62 63 
 4 
 2 17 22 29 
 10 
 2 11 12 22 39 46 48 50 61 63 
 44 
 4 5 6 7 8 9 11 12 13 15 17 18 
 20 21 22 23 24 26 28 29 30 31 32 33 
 35 37 38 41 42 43 44 47 49 50 51 53 
 54 56 57 58 60 61 62 63 
 47 
 1 2 3 4 5 6 7 9 10 11 12 13 
 16 17 19 20 22 23 24 25 26 27 28 30 
 31 32 33 34 35 37 38 39 40 42 44 45 
 46 47 48 49 50 53 54 56 60 62 63 
 62 
 1 2 3 4 5 6 7 8 9 10 11 12 
 13 14 15 16 17 18 19 20 21 22 23 24 
 25 26 27 28 29 30 31 32 33 34 35 36 
 37 38 39 40 42 43 44 45 46 47 48 49 
 50 51 52 53 54 55 56 57 58 59 60 61 
 62 63 
 45 
 1 5 7 8 10 11 12 14 15 16 17 18 
 19 21 23 24 26 27 28 29 31 32 34 35 
 39 40 41 43 45 46 47 49 50 51 52 53 
 54 55 56 58 59 60 61 62 63 
 18 
 1 9 10 19 20 25 26 27 29 32 33 39 
 40 41 53 57 61 63 
 63 
 1 2 3 4 5 6 7 8 9 10 11 12 
 13 14 15 16 17 18 19 20 21 22 23 24 
 25 26 27 28 29 30 31 32 33 34 35 36 
 37 38 39 40 41 42 43 44 45 46 47 48 
 49 50 51 52 53 54 55 56 57 58 59 60 
 61 62 63 
 30 
 2 3 8 9 12 14 15 16 18 22 24 25 
 26 28 30 31 35 37 39 40 41 42 43 50 
 52 54 56 57 58 62 
 53 
 1 2 3 6 7 8 9 10 11 13 14 15 
 16 17 18 19 20 21 22 23 24 25 27 28 
 29 30 33 34 35 36 38 39 40 41 42 43 
 45 46 47 48 49 50 51 52 53 54 55 57 
 58 60 61 62 63 
 61 
 1 2 3 4 5 7 8 9 10 11 12 13 
 14 15 16 17 18 19 20 21 22 23 24 25 
 26 27 28 29 31 32 33 34 35 36 37 38 
 39 40 41 42 43 44 45 46 47 48 49 50 
 51 52 53 54 55 56 57 58 59 60 61 62 
 63 
 29 
 1 2 3 4 5 11 12 14 15 18 21 24 
 29 30 31 32 33 34 35 36 41 45 50 53 
 55 56 59 61 62 
 11 
 1 6 30 31 33 35 37 42 59 62 63 
 17 
 2 14 16 26 32 35 37 38 41 42 49 50 
 52 55 56 57 61 
 27 
 2 3 4 7 8 9 14 16 20 21 22 24 
 25 31 34 37 41 44 45 47 48 51 52 55 
 58 61 62 
 37 
 1 4 6 7 11 13 15 16 18 20 21 22 
 24 25 26 27 28 29 30 31 34 35 37 38 
 41 42 44 46 50 55 56 57 58 59 60 61 
 62 
 17 
 2 3 6 9 10 13 17 20 26 30 35 36 
 42 44 45 60 62 
 3 
 38 41 62 
 6 
 2 5 8 11 13 36 
 59 
 1 2 3 4 5 6 7 8 9 10 11 12 
 13 14 15 16 17 18 19 20 21 22 23 24 
 25 26 28 29 30 31 32 33 34 35 37 38 
 39 40 41 42 43 44 45 46 47 48 49 50 
 52 53 54 55 56 57 58 60 61 62 63 
 10 
 3 9 13 15 19 24 28 40 44 55 
 14 
 1 3 7 10 16 17 25 32 41 45 49 56 
 61 63 
 18 
 2 4 11 12 15 18 19 22 29 31 43 45 
 46 47 52 54 56 62 
 29 
 4 5 9 10 11 12 15 17 18 21 22 23 
 25 28 29 30 31 35 37 40 44 45 46 47 
 48 51 54 57 61 
 40 
 1 4 5 6 7 8 9 11 12 14 15 16 
 17 18 19 20 22 24 27 28 32 33 35 36 
 37 38 43 46 47 48 49 50 51 52 54 55 
 56 58 61 62 
 41 
 2 4 5 6 7 11 13 14 15 16 17 18 
 19 20 22 24 26 28 31 32 35 37 39 40 
 41 42 43 45 46 47 48 49 51 53 57 58 
 59 60 61 62 63 
 30 
 2 3 4 15 16 17 20 21 23 24 26 29 
 30 32 33 34 36 41 43 45 46 47 50 51 
 55 56 57 58 60 62 
 14 
 6 8 18 29 30 31 35 36 41 46 51 59 
 60 61 
 15 
 2 7 15 17 22 25 29 39 43 45 46 49 
 54 59 63 
 13 
 1 2 10 11 29 32 40 43 44 46 50 51 
 61 
 62 
 1 2 3 4 5 6 7 8 9 10 11 12 
 13 14 15 16 17 18 19 20 21 22 23 24 
 25 26 27 28 29 30 31 32 33 35 36 37 
 38 39 40 41 42 43 44 45 46 47 48 49 
 50 51 52 53 54 55 56 57 58 59 60 61 
 62 63 
 13 
 3 7 11 12 20 21 27 28 34 48 50 55 
 63 
 58 
 1 3 4 5 6 7 8 9 11 12 13 14 
 15 16 17 18 19 20 21 22 23 25 26 27 
 28 29 30 31 32 33 34 35 36 37 38 39 
 40 41 42 43 44 46 47 48 49 50 51 52 
 53 54 55 56 57 58 60 61 62 63 
 55 
 2 3 4 5 7 8 9 10 11 12 13 15 
 16 17 18 19 20 22 23 24 25 26 28 29 
 30 31 32 33 34 35 36 37 38 39 40 41 
 42 43 44 45 46 47 48 49 50 51 52 53 
 54 56 58 59 60 62 63 
 2 
 39 44 
 3 
 40 41 43 
 7 
 2 7 11 35 36 44 47 
 4 
 1 15 33 56 
 37 
 2 7 10 11 12 14 15 16 18 19 22 23 
 27 29 33 34 36 37 38 39 40 41 42 43 
 44 46 48 49 50 52 54 56 57 59 60 62 
 63 
 32 
 3 4 5 7 9 10 11 14 15 16 19 20 
 21 22 25 26 31 36 37 40 45 46 48 49 
 51 52 53 54 55 56 58 62 
 41 
 1 2 3 4 6 8 10 11 12 13 14 17 
 18 19 21 22 24 25 26 29 30 34 35 36 
 37 40 42 43 44 46 47 48 49 51 52 53 
 55 56 57 58 60 
 3 
 13 39 49 
 21 
 3 6 7 13 18 20 23 26 28 32 34 35 
 43 44 50 51 53 54 56 58 61 
 26 
 2 6 7 8 10 11 16 20 24 26 31 32 
 33 38 39 40 41 42 45 46 49 54 55 57 
 60 62 
 2 
 12 20 
 22 
 2 5 6 10 14 15 16 18 19 21 25 28 
 33 36 37 39 40 47 51 54 55 61 
 28 
 6 7 10 11 15 16 17 18 19 20 22 24 
 28 31 32 33 39 42 43 46 47 51 53 55 
 57 58 62 63 
 15 
 5 10 11 12 14 21 31 34 35 36 40 48 
 50 60 61 
 24 
 1 2 7 11 14 15 19 20 21 23 26 30 
 39 40 41 46 50 52 53 54 55 56 59 61 
 36 
 3 5 7 9 10 13 14 15 17 20 25 27 
 29 31 32 35 36 37 38 40 41 43 44 47 
 50 51 52 53 54 55 56 58 59 61 62 63 
 4 
 3 58 61 62 
 25 
 4 6 8 10 11 15 17 21 23 25 28 29 
 37 39 40 44 45 49 50 51 52 55 57 59 
 61 
 56 
 2 3 4 5 6 7 8 9 10 11 13 14 
 15 16 17 18 19 21 22 23 24 26 27 28 
 29 30 31 32 33 34 35 36 37 38 39 40 
 41 43 44 45 46 47 48 49 50 51 52 53 
 55 56 57 58 59 61 62 63 
 28 
 1 5 6 8 13 14 16 17 19 21 22 24 
 25 28 30 34 38 41 42 43 44 45 48 51 
 56 57 61 62 
 48 
 3 4 5 7 8 11 12 13 15 17 18 20 
 22 23 26 27 28 29 30 31 32 33 34 37 
 38 39 40 41 42 43 44 45 46 47 48 50 
 51 53 54 55 56 57 58 59 60 61 62 63 
 53 
 1 2 3 4 5 6 7 9 10 11 12 13 
 14 16 17 18 19 21 23 24 27 29 30 31 
 32 33 34 35 36 37 38 39 40 41 42 43 
 44 45 47 49 50 51 52 53 54 55 56 57 
 58 59 60 62 63 
 48 
 1 2 3 6 8 9 11 12 13 14 16 18 
 19 23 25 26 27 28 30 31 32 33 34 35 
 36 37 38 39 40 42 43 44 45 47 48 49 
 51 52 53 54 55 56 58 59 60 61 62 63 
 62 
 1 2 3 4 5 6 7 8 9 10 11 12 
 14 15 16 17 18 19 20 21 22 23 24 25 
 26 27 28 29 30 31 32 33 34 35 36 37 
 38 39 40 41 42 43 44 45 46 47 48 49 
 50 51 52 53 54 55 56 57 58 59 60 61 
 62 63 
 9 
 1 7 17 33 41 45 46 50 54 
 23 
 2 7 14 16 20 22 24 25 26 27 30 35 
 41 42 43 44 50 51 55 56 57 59 63 
 36 
 4 6 7 9 13 15 16 17 20 22 25 27 
 29 30 31 34 35 36 37 38 39 40 43 44 
 46 48 49 50 51 52 53 55 56 58 62 63 
 56 
 2 3 4 5 6 7 8 9 10 11 13 15 
 16 17 18 19 20 21 22 23 24 25 28 29 
 30 31 32 33 35 36 37 38 39 40 41 42 
 43 44 46 47 48 49 50 51 52 53 54 55 
 56 57 58 59 60 61 62 63 
 61 
 1 2 3 4 5 6 7 8 9 10 11 13 
 14 15 16 17 18 20 21 22 23 24 25 26 
 27 28 29 30 31 32 33 34 35 36 37 38 
 39 40 41 42 43 44 45 46 47 48 49 50 
 51 52 53 54 55 56 57 58 59 60 61 62 
 63 
 42 
 1 2 3 4 6 7 9 11 12 15 16 17 
 18 19 21 22 25 26 27 28 30 31 32 33 
 34 36 41 42 43 44 45 46 48 50 51 54 
 55 57 59 60 62 63 
 28 
 1 2 7 10 12 13 17 25 27 31 32 33 
 35 37 38 40 42 43 45 48 50 52 54 55 
 57 59 60 63 
 